RAW/CMTT/fspd-mid/CMT6T.vrp_seed-2.out
555.4302365	0.01	140.769
