RAW/CMTT/fspd-mid/CMT6T.vrp_seed-2.sol
Route #1: 18 4 47 46
Route #2: 17 42 19 40 41 13 25 14
Route #3: 38 9 30 34 50 21 29 16 11 32
Route #4: 2 20 35 36 3 28 31 22 1
Route #5: 27 48 8 26 7 43 24 23 6
Route #6: 5 49 10 39 33 45 15 44 37 12
Cost 555.430236